INCAR
 ENCUT = 520.000000 # Energy Cutoff
 SIGMA = 0.050000
 EDIFF = 1.00e-08 # Stopping criteria for ESC
 EDIFFG = -5.00e-02 # Defines the break condition for the ionic relaxation loop
 GGA = PE # PBE sudopotential
 PREC = Accurate
 IBRION = 2 # Ionic relaxation (RMM-DIIS)
 ISIF = 2 # Determines which degrees of freedom, 2 means optimize geometry but not cell volume or shape
 ISMEAR = 0 # Smearing, here we use Gaussian smearing
 NPAR = 16 # Determines the number of bands that are treated in parallel
 NSW = 1000 # The maximum number of ionic steps
 NWRITE = 1
 LCHARG = .FALSE.
 LWAVE = .FALSE.
 LREAL = .FALSE.

