PDPPT_CCTT
1.0
        30.0000000000       0.0000000000        0.0000000000
        0.00000000000       30.0000000000       0.0000000000
        0.00000000000       0.0000000000        30.0000000000 
  C S N O H
  22 4 2 2 12
Cartesian
       16.9344700000     15.4014600000     15.0234300000                 
       18.0547900000     14.5802800000     15.0129400000                 
       19.2245200000     15.3940800000     14.9943100000                 
       18.8268500000     16.7932200000     14.9934000000                     
       20.3433300000     14.5739600000     14.9839200000                 
       18.4518900000     13.1824800000     15.0147700000 
       24.2246100000     14.9873600000     14.9327000000                 
       23.6648200000     16.2402300000     14.9340300000                 
       22.2472600000     16.2184200000     14.9522300000                 
       21.7299100000     14.9332300000     14.9646900000                                          
       13.0347700000     14.9775100000     15.0814000000                 
       13.6303000000     13.7237500000     15.0800900000                 
       15.0365700000     13.7537300000     15.0576800000                 
       15.5540500000     15.0422800000     15.0413700000                          
       11.6347300000     15.3111600000     15.1034800000                 
       11.0375800000     16.5476500000     15.2680600000                 
        9.6253700000     16.5054000000     15.2530100000                 
        9.1087000000     15.2363300000     15.0753200000                          
        5.2293600000     14.7454000000     14.8206800000                 
        5.7798400000     13.5121800000     15.0427100000                 
        7.1973600000     13.5515400000     15.1554000000                 
        7.7256900000     14.8187900000     15.0171600000      
       23.0213200000     13.7413000000     14.9537800000 
       14.2609600000     16.2334600000     15.0440300000  
       10.4070300000     14.0682200000     14.9008700000  
        6.4413400000     15.9840200000     14.7312800000   
       17.4052300000     16.7116900000     15.0116700000                     
       19.8743900000     13.2646700000     14.9958700000                 
       19.4506000000     17.8473200000     14.9812500000                 
       17.8284500000     12.1274400000     15.0285100000                                  
       16.8354300000     17.5457900000     15.0163700000                 
       20.4450000000     12.4310400000     14.9928900000                 
       25.2734200000     14.7218600000     14.9205800000                 
       24.2522000000     17.1514900000     14.9224800000                 
       21.6058900000     17.0942800000     14.9564400000                 
       13.0539700000     12.8053300000     15.1076400000                 
       15.6803500000     12.8794500000     15.0586300000                 
       11.6058500000     17.4594600000     15.4182500000                 
        8.9979200000     17.3788600000     15.3932400000                 
        4.1851000000     15.0024100000     14.7024700000                 
        5.1937800000     12.6041900000     15.1313900000                 
        7.8104900000     12.6785600000     15.3523700000                 
